ntypat 1
znucl 54 
pseudos "GTH/Xe-q8"
natom 1
typat 1 
xcart 0.0 0.0 0.0

nstep 100
toldfe 1.0d-10
kptopt 0
nkpt 1
diemac 2.0
pp_dirpath "/pc2/groups/hpc-prf-metdyn/epop2d10_Lukas/Pseudos"
chksymbreak=0
chksymtnons=0
acell 3*60
ecut 400
nband 50
icutcoul 0 
