ntypat 1
znucl 11 
pseudos "GTH/Na-q9"
natom 4
typat 1 1 1 1 
xcart 0.00046203800421269997 -0.1886046692100196 2.923618887510516
-0.0004618490316138399 6.0049040393182915 0.09191135879793363
0.0004618490316138399 0.18854211927979692 -2.923812395451749
-0.0004618490316138399 -6.004841300415471 -0.091717850856701

nstep 100
toldfe 1.0d-10
kptopt 0
nkpt 1
diemac 2.0
pp_dirpath "/pc2/groups/hpc-prf-metdyn/epop2d10_Lukas/Pseudos"
chksymbreak=0
chksymtnons=0
acell 3*60
ecut 400
nband 50
icutcoul 0 
