ntypat 1
znucl 33 
pseudos "GTH/As-q5"
natom 2
typat 1 1 
xcart 0.0 0.0 0.0
0.0 0.0 3.9733378636303596

nstep 100
toldfe 1.0d-10
kptopt 0
nkpt 1
diemac 2.0
pp_dirpath "/pc2/groups/hpc-prf-metdyn/epop2d10_Lukas/Pseudos"
chksymbreak=0
chksymtnons=0
acell 3*60
ecut 400
nband 50
icutcoul 0 
