ntypat 2
znucl 6 1 
pseudos "GTH/C-q4, GTH/H-q1"
natom 11
typat 1 1 1 2 2 2 2 2 2 2 2 
xcart 0.0 1.1079463471161801 -0.0
-2.39636152614366 -0.49624204460636 0.0
2.39636152614366 -0.49624204460636 -0.0
0.0 2.3525198832081395 1.6553999660136
-0.0005669177965799999 2.3532757736035803 -1.65502202081588
-4.07727279300336 0.7071354649341199 0.0
4.07727279300336 0.70732443753298 0.0
-2.5078553594710598 -1.7033990061240398 1.662958869968
-2.5078553594710598 -1.7033990061240398 -1.662958869968
2.5078553594710598 -1.7033990061240398 -1.662958869968
2.50804433206992 -1.7033990061240398 1.662958869968

nstep 100
toldfe 1.0d-10
kptopt 0
nkpt 1
diemac 2.0
pp_dirpath "/pc2/groups/hpc-prf-metdyn/epop2d10_Lukas/Pseudos"
chksymbreak=0
chksymtnons=0
acell 3*60
ecut 400
nband 50
icutcoul 0 
