ntypat 1
znucl 6 
pseudos "GTH/C-q4"
natom 4
typat 1 1 1 1 
xcart 2.3143474182384196 0.0 0.0
-2.3143474182384196 0.0 0.0
0.0 -1.37685435529396 0.0
0.0 1.37685435529396 0.0

nstep 100
toldfe 1.0d-10
kptopt 0
nkpt 1
diemac 2.0
pp_dirpath "/pc2/groups/hpc-prf-metdyn/epop2d10_Lukas/Pseudos"
chksymbreak=0
chksymtnons=0
acell 3*60
ecut 400
nband 50
icutcoul 0 
