ntypat 2
znucl 6 1 
pseudos "GTH/C-q4, GTH/H-q1"
natom 9
typat 1 1 1 2 2 2 2 2 2 
xcart 0.0689239759822078 1.6249772673231286 -0.3444157895042702
-0.5209483221813164 -1.0663383602991852 -1.1342645609594122
0.5072515882159436 -0.5364780903556311 1.4869346735818871
-0.7793400052325374 -0.7187535003120328 3.0680476212576324
2.4298606987435725 -1.096447364475549 1.9093866977853946
-1.5057412266204342 2.8789484107563963 0.0249689494873718
1.6946741412346737 2.5519388873331206 -1.1727507204432397
-2.5160095271118688 -1.5186348270406522 -1.1944825693121397
0.5964372062479205 -2.0406848594733225 -2.5451358737741607

nstep 100
toldfe 1.0d-10
kptopt 0
nkpt 1
diemac 2.0
pp_dirpath "/pc2/groups/hpc-prf-metdyn/epop2d10_Lukas/Pseudos"
chksymbreak=0
chksymtnons=0
acell 3*60
ecut 400
nband 50
icutcoul 0 
