ntypat 2
znucl 6 1 
pseudos "GTH/C-q4, GTH/H-q1"
natom 12
typat 1 1 1 1 1 1 2 2 2 2 2 2 
xcart 0.0 2.6437266580514 0.0
2.2894030351889 1.3218633290257 0.0
2.2894030351889 -1.3218633290257 0.0
0.0 -2.6437266580514 0.0
-2.2894030351889 -1.3218633290257 0.0
-2.2894030351889 1.3218633290257 0.0
0.0 4.7243149715 0.0
4.0914457379178595 2.36215748575 0.0
4.0914457379178595 -2.36215748575 0.0
0.0 -4.7243149715 0.0
-4.0914457379178595 -2.36215748575 0.0
-4.0914457379178595 2.36215748575 0.0

nstep 100
toldfe 1.0d-10
kptopt 0
nkpt 1
diemac 2.0
pp_dirpath "/pc2/groups/hpc-prf-metdyn/epop2d10_Lukas/Pseudos"
chksymbreak=0
chksymtnons=0
acell 3*60
ecut 400
nband 50
icutcoul 0 
