ntypat 2
znucl 6 1 
pseudos "GTH/C-q4, GTH/H-q1"
natom 16
typat 1 1 1 1 1 1 1 1 2 2 2 2 2 2 2 2 
xcart -0.49643101720522 -3.14885041480418 0.72433197143038
1.9522759188226597 -2.5339335781137398 0.7231981358372199
-1.94585085046142 2.53355563291602 0.7265996426167
0.4969979350018 3.14941733260076 0.7247099166281
-2.53676816709664 -1.9411265354899196 -0.7173399852725599
3.1690704828822 -0.49794279799610003 -0.72508786182582
-3.18248753740126 0.4941633460189 -0.7390718341414599
2.5426263176612998 1.9486854394443198 -0.7224422454417799
-1.0752540875133998 -4.81728949013912 1.8252863323887398
3.25297431677604 -3.7265396495192 1.82471941459216
-3.2473051388102396 3.7246499235306 1.83341215413972
1.07827764909516 4.815210791551659 1.83265626374428
-3.72049252635568 -3.2645016453065 -1.8094126340845
4.83826544861258 -1.07298641632708 -1.8235855789989999
-4.85451709211454 1.06032525220346 -1.8349239349306
3.7323978000838602 3.25713171395096 -1.81659359284118

nstep 100
toldfe 1.0d-10
kptopt 0
nkpt 1
diemac 2.0
pp_dirpath "/pc2/groups/hpc-prf-metdyn/epop2d10_Lukas/Pseudos"
chksymbreak=0
chksymtnons=0
acell 3*60
ecut 400
nband 50
icutcoul 0 
