ntypat 2
znucl 6 1 
pseudos "GTH/C-q4, GTH/H-q1"
natom 11
typat 1 1 1 1 1 2 2 2 2 2 2 
xcart 1.388948601621 0.0 0.0
-1.388948601621 0.0 0.0
2.231312858299336 0.0 2.3920246049998233
-2.231312858299336 0.0 2.3920246049998233
-0.0058411430307626 0.0 4.174964067710026
4.211265703951031 0.0 2.9599798611475645
2.578803231987058 0.0 -1.6813761394528957
-2.579400385399456 0.0 -1.6809547305574377
-4.211893092979247 0.0 2.9577858892748
-0.0020522424236196 1.6732522074279041 5.376211856061353
-0.0107752175869972 -1.668278448625909 5.383107466193755

nstep 100
toldfe 1.0d-10
kptopt 0
nkpt 1
diemac 2.0
pp_dirpath "/pc2/groups/hpc-prf-metdyn/epop2d10_Lukas/Pseudos"
chksymbreak=0
chksymtnons=0
acell 3*60
ecut 400
nband 50
icutcoul 0 
