ntypat 3
znucl 6 1 17 
pseudos "GTH/C-q4, GTH/H-q1, GTH/Cl-q7"
natom 6
typat 1 1 2 2 2 3 
xcart -1.047408975071379 -0.8416102560088846 0.20990320390973358
0.7034580581603044 0.827766123416401 -0.443216333366244
-2.49839350144614 -0.39828431853530183 1.572138638955884
-1.0274383508238543 -2.6933244063481956 -0.6435197292538896
2.1793340552569043 0.456123161868382 -1.7981555363704098
0.832292017159098 3.8338118349880674 0.8159742332475369

nstep 100
toldfe 1.0d-10
kptopt 0
nkpt 1
diemac 2.0
pp_dirpath "/pc2/groups/hpc-prf-metdyn/epop2d10_Lukas/Pseudos"
chksymbreak=0
chksymtnons=0
acell 3*60
ecut 400
nband 50
icutcoul 0 
