ntypat 3
znucl 6 1 53 
pseudos "GTH/C-q4, GTH/H-q1, GTH/I-q7"
natom 6
typat 1 1 2 2 2 3 
xcart 0.0 0.0 0.0
0.0 0.0 2.5095561128608
-1.7082574916407305 0.0 -1.1246779810192442
-1.6995193986694441 0.0 3.636150276032485
1.7250987296511338 0.0 -1.0905627577470485
3.3023793130219983 0.0 4.651689022306125

nstep 100
toldfe 1.0d-10
kptopt 0
nkpt 1
diemac 2.0
pp_dirpath "/pc2/groups/hpc-prf-metdyn/epop2d10_Lukas/Pseudos"
chksymbreak=0
chksymtnons=0
acell 3*60
ecut 400
nband 50
icutcoul 0 
