ntypat 2
znucl 3 1 
pseudos "GTH/Li-q3, GTH/H-q1"
natom 2
typat 1 2 
xcart 0.0 0.0 0.0
0.0 0.0 3.01392397921814

nstep 100
toldfe 1.0d-10
kptopt 0
nkpt 1
diemac 2.0
pp_dirpath "/pc2/groups/hpc-prf-metdyn/epop2d10_Lukas/Pseudos"
chksymbreak=0
chksymtnons=0
acell 3*60
ecut 400
nband 50
icutcoul 0 
