ntypat 2
znucl 15 1 
pseudos "GTH/P-q5, GTH/H-q1"
natom 4
typat 1 2 2 2 
xcart 0.0 0.0 0.0
0.0 -2.25482104959752 -1.45830154540262
1.95265386402038 1.12741052479876 -1.45830154540262
-1.95265386402038 1.12741052479876 -1.45830154540262

nstep 100
toldfe 1.0d-10
kptopt 0
nkpt 1
diemac 2.0
pp_dirpath "/pc2/groups/hpc-prf-metdyn/epop2d10_Lukas/Pseudos"
chksymbreak=0
chksymtnons=0
acell 3*60
ecut 400
nband 50
icutcoul 0 
