ntypat 2
znucl 7 1 
pseudos "GTH/N-q5, GTH/H-q1"
natom 6
typat 1 1 2 2 2 2 
xcart 0.0 1.3662718897578 -0.21221622851978
0.0 -1.3662718897578 -0.21221622851978
-0.8447075169042 1.8955841391646602 1.4290107925793198
0.8447075169042 -1.8955841391646602 1.4290107925793198
1.8260422227841802 1.8955841391646602 0.05688075225686
-1.8260422227841802 -1.8955841391646602 0.05688075225686

nstep 100
toldfe 1.0d-10
kptopt 0
nkpt 1
diemac 2.0
pp_dirpath "/pc2/groups/hpc-prf-metdyn/epop2d10_Lukas/Pseudos"
chksymbreak=0
chksymtnons=0
acell 3*60
ecut 400
nband 50
icutcoul 0 
