ntypat 3
znucl 8 6 1 
pseudos "GTH/O-q6, GTH/C-q4, GTH/H-q1"
natom 15
typat 1 2 2 2 2 3 3 3 3 3 3 3 3 3 3 
xcart 0.0 0.0 0.50947012652656
0.0 2.2119242696563 -0.9796339524902399
0.0 -2.2119242696563 -0.9796339524902399
0.0 4.48167415456376 0.77138614854652
0.0 -4.48167415456376 0.77138614854652
-1.67788770527794 2.2431047484682 -2.20644406428936
1.67788770527794 2.2431047484682 -2.20644406428936
1.67788770527794 -2.2431047484682 -2.20644406428936
-1.67788770527794 -2.2431047484682 -2.20644406428936
0.0 6.22872583102446 -0.32673362342893997
0.0 -6.22872583102446 -0.32673362342893997
1.6705177739224 4.45068264835072 1.97589749368016
-1.6705177739224 4.45068264835072 1.97589749368016
-1.6705177739224 -4.45068264835072 1.97589749368016
1.6705177739224 -4.45068264835072 1.97589749368016

nstep 100
toldfe 1.0d-10
kptopt 0
nkpt 1
diemac 2.0
pp_dirpath "/pc2/groups/hpc-prf-metdyn/epop2d10_Lukas/Pseudos"
chksymbreak=0
chksymtnons=0
acell 3*60
ecut 400
nband 50
icutcoul 0 
