ntypat 2
znucl 6 9 
pseudos "GTH/C-q4, GTH/F-q7"
natom 12
typat 1 1 1 1 1 1 2 2 2 2 2 2 
xcart -2.064888469935311 -1.654974777666165 0.0
0.4008335588939232 -2.6157265880783136 0.0
2.4655311665043858 -0.9607518104121487 0.0
2.064888469935311 1.654974777666165 0.0
-0.4008335588939232 2.615537615479454 0.0
-2.4657220288292345 0.9605628378132888 0.0
-4.018594911331341 -3.2210133811308483 0.0
0.7802225072692136 -5.09070449479971 0.0
4.798683248055364 -1.8695153691519228 0.0
4.018594911331341 3.2210133811308483 0.0
-0.7801884922014188 5.090519301652828 0.0
-4.798687027507341 1.8698026075021903 0.0

nstep 100
toldfe 1.0d-10
kptopt 0
nkpt 1
diemac 2.0
pp_dirpath "/pc2/groups/hpc-prf-metdyn/epop2d10_Lukas/Pseudos"
chksymbreak=0
chksymtnons=0
acell 3*60
ecut 400
nband 50
icutcoul 0 
