ntypat 3
znucl 6 1 7 
pseudos "GTH/C-q4, GTH/H-q1, GTH/N-q5"
natom 14
typat 1 1 1 1 1 1 2 2 2 2 2 3 2 2 
xcart -2.05251265443597 -1.6450556059520036 0.0
0.39842982743642397 -2.6000475315508993 0.0
2.4507535092735337 -0.954991925598896 0.0
2.052510764709981 1.6450556059520036 0.0
-0.3984317171624126 2.5998585589520395 0.0
-2.450942481872394 0.9548048427260245 0.0
-3.6522809770711744 -2.9261480967736584 0.0
0.708609451205228 -4.62594150571145 0.0
4.360493585818796 -1.698867443203377 0.0
3.6516743750288336 2.92690209744311 0.0
-4.361170107722715 1.697431251452041 0.0
-0.8097494758410886 5.272632195174211 0.0
0.6114529689533362 6.31293957998043 0.6549204461431134
-2.50797630193433 5.801780038420062 0.631130685672628

nstep 100
toldfe 1.0d-10
kptopt 0
nkpt 1
diemac 2.0
pp_dirpath "/pc2/groups/hpc-prf-metdyn/epop2d10_Lukas/Pseudos"
chksymbreak=0
chksymtnons=0
acell 3*60
ecut 400
nband 50
icutcoul 0 
