ntypat 4
znucl 6 7 1 8 
pseudos "GTH/C-q4, GTH/N-q5, GTH/H-q1, GTH/O-q6"
natom 16
typat 1 1 2 1 2 3 1 2 3 1 4 2 3 2 3 3 
xcart -1.683582583517185 0.0042509386113557006 0.9221345039447123
0.8784687944987309 0.01247370330555088 1.5928300046954609
-2.7570520138069514 0.0281909322979348 -1.4045892967108455
-1.0670180947372847 0.01545644680595712 -3.230959953871844
1.165430299908601 0.0023449609792537403 4.187471030192976
-1.6739701143309733 -0.01872227125945564 7.056361941292845
-1.1523647344234207 -0.009771017196655159 5.071906634500712
-2.9593220475309328 -0.00842685510096398 3.1794891091751487
-4.864019957193413 -0.01967620493850092 3.3802785425870616
2.7437596812031386 0.00754586484507866 -0.3870181501364663
5.0507097670591845 -0.0114281179160585 -0.3157223790659667
1.4878288919196927 0.012122403244270141 -2.8090228800002306
2.707477509139815 -0.10684567431324059 -4.290883639302726
-1.865521433275017 -0.10528948496162847 -5.706511770375979
-3.740890417649227 0.23652925411650874 -5.9109394932337445
-0.7645823790971645 0.720570093904874 -7.038790891105645

nstep 100
toldfe 1.0d-10
kptopt 0
nkpt 1
diemac 2.0
pp_dirpath "/pc2/groups/hpc-prf-metdyn/epop2d10_Lukas/Pseudos"
chksymbreak=0
chksymtnons=0
acell 3*60
ecut 400
nband 50
icutcoul 0 
