ntypat 3
znucl 6 7 1 
pseudos "GTH/C-q4, GTH/N-q5, GTH/H-q1"
natom 15
typat 1 1 2 1 3 2 1 2 3 3 2 3 1 2 3 
xcart -1.482197130528467 0.004660064287887599 1.2953965827197638
1.0018992710057217 0.00173250078634848 0.3688644974269804
-3.6165621323250527 0.0042677571726542395 -0.0632547980164078
-3.1141000546272157 -0.0036528403359638 -2.54584376512949
-4.75642217193671 -0.00848808222299462 -3.7974499164880253
-0.8579535512212917 -0.0096772867876206 -3.7147900892124803
1.2505758727495502 -0.0018243414693944401 -2.288053392887842
3.531190170310669 0.03434312422642096 -3.451857583583253
5.127090790765006 -0.15149328538289847 -2.4192037780034616
3.5926359336381903 -0.15369500513221634 -5.352625241134643
2.750869586262647 -0.00536738872542058 2.31580118444145
2.0818172022589865 -0.00871314858823688 6.295485881777122
1.3556223389490445 -0.00439909312886194 4.375829090161482
-1.2057090534652146 0.0023177489250178996 3.8876325539515872
-2.6326288642381486 0.00421824635175292 5.16434088047969

nstep 100
toldfe 1.0d-10
kptopt 0
nkpt 1
diemac 2.0
pp_dirpath "/pc2/groups/hpc-prf-metdyn/epop2d10_Lukas/Pseudos"
chksymbreak=0
chksymtnons=0
acell 3*60
ecut 400
nband 50
icutcoul 0 
