ntypat 4
znucl 6 1 8 7 
pseudos "GTH/C-q4, GTH/H-q1, GTH/O-q6, GTH/N-q5"
natom 15
typat 1 1 2 1 3 4 2 1 3 4 2 1 2 2 2 
xcart 1.0726970992782252 0.00014135150394728 -2.2524373492355
2.892161185896089 0.00045126656607768 -0.44468049306221125
4.899396005645202 0.0006432627265194399 -0.9101436256292488
-1.5745404806873946 0.00018292547569648 -1.4406970470654212
-3.4087990430974084 0.00024868794009976 -2.85460023625628
-1.9200147057178796 0.00032956821241184 1.2042069102768767
-3.7442208707315356 0.00045939238782866 1.8160510525098528
-0.09273679110975412 0.00041800738867832 3.082034428162255
-0.5430764465900259 -0.00111701703186146 5.345920115381892
2.34944492107949 0.00055822505703244 2.099498234498723
3.7481480992810448 0.0009378710081421799 3.409181901582699
1.6171893285789103 -0.0009146273784823999 -5.027143939118348
3.6580374603776478 -0.00037775622512114 -5.391969147244695
0.7742632563641635 1.6602408770785966 -5.946173056345994
0.7756308510621133 -1.6637784441292558 -5.944311487274623

nstep 100
toldfe 1.0d-10
kptopt 0
nkpt 1
diemac 2.0
pp_dirpath "/pc2/groups/hpc-prf-metdyn/epop2d10_Lukas/Pseudos"
chksymbreak=0
chksymtnons=0
acell 3*60
ecut 400
nband 50
icutcoul 0 
