ntypat 4
znucl 1 6 8 7 
pseudos "GTH/H-q1, GTH/C-q4, GTH/O-q6, GTH/N-q5"
natom 12
typat 1 2 2 1 2 3 4 1 2 3 4 1 
xcart 3.246759574917331 -3.7794519772e-07 -4.014595684221667
2.1615946304841196 -1.8897259886e-07 -2.2748651841860013
3.2968310775194687 -0.0 0.01842690708743746
5.342484404562018 -1.8897259886e-07 0.24533178674400638
-0.5839527315042348 0.0 -2.450991803720696
-1.8377827124061539 -1.8897259886e-07 -4.3935962939063
-1.7997272214751283 1.8897259886e-07 -0.06486049818892121
-3.723099025411756 3.7794519772e-07 -0.0965952336332776
-0.7089057602402404 1.8897259886e-07 2.3146868130259723
-1.8881826493851104 -1.8897259886e-07 4.295980797211778
1.9320520712926625 1.8897259886e-07 2.2234580232551213
2.7992837991727826 1.8897259886e-07 3.931887290988216

nstep 100
toldfe 1.0d-10
kptopt 0
nkpt 1
diemac 2.0
pp_dirpath "/pc2/groups/hpc-prf-metdyn/epop2d10_Lukas/Pseudos"
chksymbreak=0
chksymtnons=0
acell 3*60
ecut 400
nband 50
icutcoul 0 
