ntypat 4
znucl 8 6 7 1 
pseudos "GTH/O-q6, GTH/C-q4, GTH/N-q5, GTH/H-q1"
natom 8
typat 1 2 3 3 4 4 4 4 
xcart 0.0 2.46590344252414 0.0
0.0 0.15835903784468 0.0
2.19264906457258 -1.2462742894816998 0.0
-2.19264906457258 -1.2462742894816998 -0.0
2.15107509282338 -3.01675856820104 0.6470421784966399
3.76471211448892 -0.1776342429284 0.33259177399359996
-2.15107509282338 -3.01675856820104 -0.6470421784966399
-3.76471211448892 -0.1776342429284 -0.33259177399359996

nstep 100
toldfe 1.0d-10
kptopt 0
nkpt 1
diemac 2.0
pp_dirpath "/pc2/groups/hpc-prf-metdyn/epop2d10_Lukas/Pseudos"
chksymbreak=0
chksymtnons=0
acell 3*60
ecut 400
nband 50
icutcoul 0 
