ntypat 1
znucl 11 
pseudos "GTH/Na-q9"
natom 6
typat 1 1 1 1 1 1 
xcart -4.673849650001838 -3.3957504851461255 -0.4473572899250632
-4.673849650001838 3.3957504851461255 -0.4473572899250632
1.7852517314298535 -5.494439727949129 -0.4473572899250632
1.7852517314298535 5.494439727949129 -0.4473572899250632
5.777195837143969 0.0 -0.4473572899250632
0.0 0.0 2.2367864496253156

nstep 100
toldfe 1.0d-10
kptopt 0
nkpt 1
diemac 2.0
pp_dirpath "/pc2/groups/hpc-prf-metdyn/epop2d10_Lukas/Pseudos"
chksymbreak=0
chksymtnons=0
acell 3*120
ecut 80
nband 50
