ntypat 2
znucl 6 1 
pseudos "GTH/C-q4, GTH/H-q1"
natom 8
typat 1 1 2 2 2 2 2 2 
xcart 0.00018897259886 1.44696318947102 0.0
-0.00018897259886 -1.4537662030299798 0.0
-0.2549089180542312 2.1935958172928687 -1.9108758018644114
-1.5272349700147707 2.1937621131798655 1.1761144327029478
1.7826900188797072 2.193329365928476 0.7345799554665577
1.5275562234328326 -2.2005651267388258 -1.1756949135334787
0.2543533386135828 -2.2003988308518285 1.9109495011779665
-1.7824632517610755 -2.200132379487436 -0.7351298657292404

nstep 100
toldfe 1.0d-10
kptopt 0
nkpt 1
diemac 2.0
pp_dirpath "/pc2/groups/hpc-prf-metdyn/epop2d10_Lukas/Pseudos"
chksymbreak=0
chksymtnons=0
acell 3*120
ecut 80
nband 50
