ntypat 2
znucl 6 1 
pseudos "GTH/C-q4, GTH/H-q1"
natom 14
typat 1 1 1 2 2 2 2 2 2 2 1 2 2 2 
xcart -1.0769533291223492 0.00202597523237806 -0.9649470021068407
-3.6990229714539975 -0.00194112653548992 0.2475803716978415
1.0769794073409917 0.0020189832462202397 0.9650456458034458
-3.9721792726267493 -1.6815819306130542 1.4400842089273183
-3.9706843103971683 1.6678948342502231 1.4541619116519928
-5.204721868212287 0.00486264291386552 -1.1815033643046384
-0.8774581690400277 -1.6585994610848986 -2.2073568019418537
-0.8803040963788593 1.6664990826350432 -2.2026071646421066
0.8803271510359203 1.666381730651151 2.2028210816240157
0.8775902608866308 -1.6586922466309388 2.2073286450246234
3.6989970822079536 -0.00194112653548992 -0.2476625747783456
5.204842810675558 0.01311488733348286 1.1812114016393997
3.9750871829780072 -1.685630290598432 -1.433747201797147
3.967497476489993 1.6638122702244518 -1.4605894366570178

nstep 100
toldfe 1.0d-10
kptopt 0
nkpt 1
diemac 2.0
pp_dirpath "/pc2/groups/hpc-prf-metdyn/epop2d10_Lukas/Pseudos"
chksymbreak=0
chksymtnons=0
acell 3*120
ecut 80
nband 50
