ntypat 2
znucl 6 1 
pseudos "GTH/C-q4, GTH/H-q1"
natom 6
typat 1 1 2 2 2 2 
xcart 0.0 0.0 0.0
0.0 0.0 2.5114458388494
1.7451619504720999 0.0 -1.06523853977382
-1.7451619504720999 0.0 -1.06523853977382
1.7451619504720999 0.0 3.57668437862322
-1.7451619504720999 0.0 3.57668437862322

nstep 100
toldfe 1.0d-10
kptopt 0
nkpt 1
diemac 2.0
pp_dirpath "/pc2/groups/hpc-prf-metdyn/epop2d10_Lukas/Pseudos"
chksymbreak=0
chksymtnons=0
acell 3*120
ecut 80
nband 50
