ntypat 3
znucl 6 1 35 
pseudos "GTH/C-q4, GTH/H-q1, GTH/Br-q7"
natom 6
typat 1 1 2 2 2 3 
xcart 0.0 0.0 0.0
0.0 0.0 2.5050207704881595
-1.6931491323618735 0.0 -1.1381781834818028
-1.6911101180201742 0.0 3.6418289026282276
1.7166006318803997 0.0 -1.0979364685545658
2.565620503490585 0.0 4.147066042940323

nstep 100
toldfe 1.0d-10
kptopt 0
nkpt 1
diemac 2.0
pp_dirpath "/pc2/groups/hpc-prf-metdyn/epop2d10_Lukas/Pseudos"
chksymbreak=0
chksymtnons=0
acell 3*120
ecut 80
nband 50
