ntypat 2
znucl 32 1 
pseudos "GTH/Ge-q4, GTH/H-q1"
natom 5
typat 1 2 2 2 2 
xcart 0.0 0.0 0.0
1.6639037329622999 -1.6639037329622999 1.6639037329622999
-1.6639037329622999 1.6639037329622999 1.6639037329622999
-1.6639037329622999 -1.6639037329622999 -1.6639037329622999
1.6639037329622999 1.6639037329622999 -1.6639037329622999

nstep 100
toldfe 1.0d-10
kptopt 0
nkpt 1
diemac 2.0
pp_dirpath "/pc2/groups/hpc-prf-metdyn/epop2d10_Lukas/Pseudos"
chksymbreak=0
chksymtnons=0
acell 3*120
ecut 80
nband 50
