ntypat 2
znucl 14 1 
pseudos "GTH/Si-q4, GTH/H-q1"
natom 8
typat 1 1 2 2 2 2 2 2 
xcart 0.0 0.0 -2.2024756397133
0.0 0.0 2.2024756397133
2.644350267627638 0.0 3.1806507237403405
-2.644350267627638 0.0 -3.1806507237403405
1.3218633290257 2.28959200778776 -3.1806507237403405
1.3218633290257 -2.28959200778776 -3.1806507237403405
-1.3218633290257 -2.28959200778776 3.1806507237403405
-1.3218633290257 2.28959200778776 3.1806507237403405

nstep 100
toldfe 1.0d-10
kptopt 0
nkpt 1
diemac 2.0
pp_dirpath "/pc2/groups/hpc-prf-metdyn/epop2d10_Lukas/Pseudos"
chksymbreak=0
chksymtnons=0
acell 3*120
ecut 80
nband 50
