ntypat 2
znucl 14 1 
pseudos "GTH/Si-q4, GTH/H-q1"
natom 17
typat 1 2 2 2 1 1 2 2 1 2 2 1 2 2 2 2 2 
xcart -0.0091339905658981 -7.3642086983287225 -0.9899214317995796
2.2464622246321455 -7.395267856732154 -2.693331776279551
0.04232853933644798 -9.692061799235068 0.6147093447768917
-2.3405012259206437 -7.423407577455798 -2.5868292762058402
0.019740833567311038 -3.6919555852292323 1.505928120520707
-0.00076590594317958 2.4566437851799998e-05 -0.963927494935991
-2.2495453125825464 -3.677008230604604 3.2019498253578513
2.3237329313334008 -3.6904557097120807 3.1545751507140447
-0.01983966623651482 3.6919060744083314 1.5059732849718346
-2.284430221249899 -0.00647174459315842 -2.641513222000953
2.284391103921935 0.0070057811575367805 -2.638948296916626
0.009815236784788399 7.364196604082395 -0.9899293686487317
-0.03617615843536296 9.692057074920095 0.614854853678014
2.33897678396564 7.419538552466738 -2.590313175038423
-2.248193402610302 7.399425253907075 -2.689951245458545
2.25070012413418 3.68437551634376 3.2003917462802507
-2.3226408586845886 3.683302718900032 3.1562297947896627

nstep 100
toldfe 1.0d-10
kptopt 0
nkpt 1
diemac 2.0
pp_dirpath "/pc2/groups/hpc-prf-metdyn/epop2d10_Lukas/Pseudos"
chksymbreak=0
chksymtnons=0
acell 3*120
ecut 80
nband 50
