ntypat 2
znucl 5 1 
pseudos "GTH/B-q3, GTH/H-q1"
natom 4
typat 1 2 2 2 
xcart 0.0 0.0 0.0
0.0 0.0 2.2487739264339996
0.0 1.94755160385116 -1.1243869632169998
0.0 -1.94755160385116 -1.1243869632169998

nstep 100
toldfe 1.0d-10
kptopt 0
nkpt 1
diemac 2.0
pp_dirpath "/pc2/groups/hpc-prf-metdyn/epop2d10_Lukas/Pseudos"
chksymbreak=0
chksymtnons=0
acell 3*120
ecut 80
nband 50
