ntypat 2
znucl 7 1 
pseudos "GTH/N-q5, GTH/H-q1"
natom 4
typat 1 2 2 2 
xcart 0.0 0.0 0.0
0.0 -1.77199605951022 -0.72111943724976
1.5346464753420601 0.88609251605454 -0.72111943724976
-1.5346464753420601 0.88609251605454 -0.72111943724976

nstep 100
toldfe 1.0d-10
kptopt 0
nkpt 1
diemac 2.0
pp_dirpath "/pc2/groups/hpc-prf-metdyn/epop2d10_Lukas/Pseudos"
chksymbreak=0
chksymtnons=0
acell 3*120
ecut 80
nband 50
