ntypat 3
znucl 6 1 7 
pseudos "GTH/C-q4, GTH/H-q1, GTH/N-q5"
natom 3
typat 1 2 3 
xcart 0.0 0.0 0.0
0.0 0.0 2.0135030408533
0.0 0.0 -2.17923201005352

nstep 100
toldfe 1.0d-10
kptopt 0
nkpt 1
diemac 2.0
pp_dirpath "/pc2/groups/hpc-prf-metdyn/epop2d10_Lukas/Pseudos"
chksymbreak=0
chksymtnons=0
acell 3*120
ecut 80
nband 50
