ntypat 3
znucl 6 8 1 
pseudos "GTH/C-q4, GTH/O-q6, GTH/H-q1"
natom 4
typat 1 2 3 3 
xcart 0.0 0.0 0.0
0.0 0.0 2.2827889942287998
1.7933499631813998 0.0 -1.10983607310478
-1.7933499631813998 0.0 -1.10983607310478

nstep 100
toldfe 1.0d-10
kptopt 0
nkpt 1
diemac 2.0
pp_dirpath "/pc2/groups/hpc-prf-metdyn/epop2d10_Lukas/Pseudos"
chksymbreak=0
chksymtnons=0
acell 3*120
ecut 80
nband 50
