ntypat 3
znucl 6 8 1 
pseudos "GTH/C-q4, GTH/O-q6, GTH/H-q1"
natom 6
typat 1 2 3 3 3 3 
xcart -1.3658769370261825 -0.0133017812337554 0.0
1.325996159762768 0.0220927865327226 0.0
-1.932222146631637 -2.0015769801392453 0.0
-2.1964436343576885 0.8601654754909479 -1.678709736082981
-2.169908102025768 0.884901988681722 1.6785755655377905
1.871269034869344 1.7228008228489962 0.0

nstep 100
toldfe 1.0d-10
kptopt 0
nkpt 1
diemac 2.0
pp_dirpath "/pc2/groups/hpc-prf-metdyn/epop2d10_Lukas/Pseudos"
chksymbreak=0
chksymtnons=0
acell 3*120
ecut 80
nband 50
