ntypat 3
znucl 6 8 1 
pseudos "GTH/C-q4, GTH/O-q6, GTH/H-q1"
natom 9
typat 1 1 2 3 3 3 3 3 3 
xcart 2.24480550185794 -0.72357608103494 0.0
0.0 1.0442625813003599 0.0
-2.24253783067162 -0.46714026438192 0.0
-3.63526588426982 0.727544505611 0.0
3.9655899870771 0.43577081297116 0.0
2.11346954565024 -1.9073004402939802 1.67599797928934
2.11346954565024 -1.9073004402939802 -1.67599797928934
-0.04289677994122 2.23214433773432 1.6727854451087198
-0.04289677994122 2.23214433773432 -1.6727854451087198

nstep 100
toldfe 1.0d-10
kptopt 0
nkpt 1
diemac 2.0
pp_dirpath "/pc2/groups/hpc-prf-metdyn/epop2d10_Lukas/Pseudos"
chksymbreak=0
chksymtnons=0
acell 3*120
ecut 80
nband 50
