ntypat 3
znucl 6 8 1 
pseudos "GTH/C-q4, GTH/O-q6, GTH/H-q1"
natom 7
typat 1 1 2 3 3 3 3 
xcart 0.0 0.0 0.0
0.0 0.0 2.862934872729
1.893416623455736 0.0 4.144873960793547
-1.9271520118042231 0.0 3.773896182793516
-1.71152482787502 -0.98813771943894 -0.6859705338618
0.0 1.97627543887788 -0.6859705338618
1.71152482787502 -0.98813771943894 -0.6859705338618

nstep 100
toldfe 1.0d-10
kptopt 0
nkpt 1
diemac 2.0
pp_dirpath "/pc2/groups/hpc-prf-metdyn/epop2d10_Lukas/Pseudos"
chksymbreak=0
chksymtnons=0
acell 3*120
ecut 80
nband 50
