ntypat 3
znucl 8 6 34 
pseudos "GTH/O-q6, GTH/C-q4, GTH/Se-q6"
natom 3
typat 1 2 3 
xcart 0.0 0.0 2.1901924207874
0.0 0.0 0.0
0.0 0.0 -3.2295417145174

nstep 100
toldfe 1.0d-10
kptopt 0
nkpt 1
diemac 2.0
pp_dirpath "/pc2/groups/hpc-prf-metdyn/epop2d10_Lukas/Pseudos"
chksymbreak=0
chksymtnons=0
acell 3*120
ecut 80
nband 50
