ntypat 2
znucl 6 1 
pseudos "GTH/C-q4, GTH/H-q1"
natom 15
typat 1 1 1 1 1 1 2 2 2 2 2 1 2 2 2 
xcart -2.0628248891557597 -1.65332126742614 0.0
0.40043293698434 -2.61311309703608 0.0
2.4630688535412397 -0.95979182960994 0.0
2.0628248891557597 1.65332126742614 0.0
-0.40043293698434 2.61292412443722 0.0
-2.4632578261401004 0.9596028570110801 0.0
-3.6995146781562314 -2.965248417203781 0.0
0.7182602818290083 -4.686490216112182 0.0
3.6995146781562314 2.965248417203781 0.0
-0.7182319359391792 4.6863050229653 0.0
-4.417667245603889 1.7213060495920136 0.0
5.146632825158316 -2.005042737602338 0.0
6.419746892856103 -0.6629404432387318 0.9888671536705397
5.176651122487227 -3.8546366153824394 0.9889427427100835
5.798132867262064 -2.2588008125295116 -1.9776417107676378

nstep 100
toldfe 1.0d-10
kptopt 0
nkpt 1
diemac 2.0
pp_dirpath "/pc2/groups/hpc-prf-metdyn/epop2d10_Lukas/Pseudos"
chksymbreak=0
chksymtnons=0
acell 3*120
ecut 80
nband 50
