ntypat 2
znucl 6 1 
pseudos "GTH/C-q4, GTH/H-q1"
natom 18
typat 1 1 1 1 1 1 2 2 2 2 2 1 1 2 2 2 2 2 
xcart -4.288456286270369 -7.351034095654e-05 -0.4532931082278547
-2.9852107266569563 -2.279586475595919 -0.18994977616870506
-0.3988684328383781 -2.2733611512716747 0.33055049198071423
0.9359064490044314 7.577801214285999e-05 0.5986591460653164
-0.39897520235673395 2.2734350395578287 0.3304773595849555
-2.985323354325877 2.2795072960769973 -0.1900138378797186
-6.309737628265347 -0.0001303910932134 -0.8509804623233577
-3.9878324399081198 -4.070183296984529 -0.38023119924840937
0.6038865060949817 -4.064651124152902 0.5452284665458436
0.6036884628113766 4.064780192437923 0.5450950518910483
-3.9880592070267515 4.070031929932841 -0.3803551652732616
5.319025157166939 -7.105369717136e-05 -1.3507485466518465
3.747268053888153 9.410835423228e-05 1.09182566162523
4.899341959481928 -1.6743081863103337 -2.503565870449537
4.900180241930472 1.6745759604829185 -2.5032722070309084
7.3518052928299475 -0.00062096395985396 -0.9287426867542476
4.246934093013258 -1.666804462354801 2.2304630485222625
4.247000233422859 1.6670746931711709 2.230311870443175

nstep 100
toldfe 1.0d-10
kptopt 0
nkpt 1
diemac 2.0
pp_dirpath "/pc2/groups/hpc-prf-metdyn/epop2d10_Lukas/Pseudos"
chksymbreak=0
chksymtnons=0
acell 3*120
ecut 80
nband 50
