ntypat 3
znucl 6 1 8 
pseudos "GTH/C-q4, GTH/H-q1, GTH/O-q6"
natom 13
typat 1 1 1 1 1 1 2 2 2 2 3 2 2 
xcart -1.9768140107846308 -1.6859133715515242 -0.0
0.48644192562948035 -2.6457089806134415 0.0
2.515408594247494 -0.9512351503335592 -0.0
2.0628267788817487 1.6533231571521287 -0.0
-0.2290385692702972 2.5461544360820163 0.0
-2.3246086303565177 0.9345375314982896 0.0
-3.542332939602449 -2.9834634860078966 0.0019501972202351997
0.8156529798294749 -4.663715238497574 0.0024320773473282
4.415252175790458 -1.6758619190181607 0.0015722520225151999
3.660495615943619 2.935371849324015 -0.0015174499688458
-0.5905355919855227 5.098263398754111 -0.0024037314574991996
-4.24127266292401 1.6574446495332653 -0.0007653390253829999
-2.3642928761171182 5.441052134182197 -0.0038531512907553998

nstep 100
toldfe 1.0d-10
kptopt 0
nkpt 1
diemac 2.0
pp_dirpath "/pc2/groups/hpc-prf-metdyn/epop2d10_Lukas/Pseudos"
chksymbreak=0
chksymtnons=0
acell 3*120
ecut 80
nband 50
