ntypat 3
znucl 7 6 1 
pseudos "GTH/N-q5, GTH/C-q4, GTH/H-q1"
natom 11
typat 1 2 2 2 2 2 3 3 3 3 3 
xcart 0.0 0.0 0.0
-0.9003183732967208 -2.366775976066138 0.0
-1.7066172094826257 1.8707380218665473 0.0
-4.314010105951214 1.4823067346358056 0.0
-3.4681800918097854 -2.9630676734129366 0.0
-5.216144505922979 -0.9926844001675117 0.0
-1.005736737570772 3.795567560430781 0.0
0.5038576403404179 -3.8582478817466543 0.0
-5.590506783168593 3.07716176970065 0.0
-4.0696307411054615 -4.915311466893791 0.0
-7.215493499121664 -1.373184507424099 0.0

nstep 100
toldfe 1.0d-10
kptopt 0
nkpt 1
diemac 2.0
pp_dirpath "/pc2/groups/hpc-prf-metdyn/epop2d10_Lukas/Pseudos"
chksymbreak=0
chksymtnons=0
acell 3*120
ecut 80
nband 50
