ntypat 4
znucl 1 6 7 8 
pseudos "GTH/H-q1, GTH/C-q4, GTH/N-q5, GTH/O-q6"
natom 13
typat 1 2 2 1 3 1 2 4 3 2 3 1 1 
xcart -3.900195263351201 3.3225137765127344 -0.009185202140189159
-2.1803068861958357 2.2013599454896307 0.00272328412217146
0.14209813468537585 3.3150782716653904 0.0009495873092715
0.406953814453202 5.357050601454746 0.00011791890168863999
2.2507910199542316 1.869430331482436 -0.0022260972145708
4.002090044546908 2.6523842486955718 -0.00509054386809068
2.2041546612541714 -0.8386297801796647 -0.00017990191411471998
4.22297558001199 -1.9672276198170622 -0.00282003809278778
-0.14299216405058252 -1.9341296360445295 0.013557650132611839
-2.204832128021084 -0.5145852368325025 0.00601197426013204
-4.462616267968729 -1.751627458969496 -0.04725014170115782
-4.423048240356428 -3.652816525416344 0.1696926694613085
-6.098486293835346 -0.8236603157609698 0.2750868452427054

nstep 100
toldfe 1.0d-10
kptopt 0
nkpt 1
diemac 2.0
pp_dirpath "/pc2/groups/hpc-prf-metdyn/epop2d10_Lukas/Pseudos"
chksymbreak=0
chksymtnons=0
acell 3*120
ecut 80
nband 50
