&FORCE_EVAL
  METHOD Quickstep
  &DFT
    BASIS_SET_FILE_NAME BASIS_MOLOPT
    BASIS_SET_FILE_NAME ./BASIS_TZV2P_MOLOPT_PLUS_AUG_QZVP
    POTENTIAL_FILE_NAME GTH_POTENTIALS
	&PRINT
	  &MO
	    EIGENVALUES
	  &END MO
	&END PRINT
    &MGRID
      CUTOFF 800
      REL_CUTOFF 120
    &END MGRID
    &QS
      METHOD GPW
    &END QS
    &POISSON
      PERIODIC NONE
      PSOLVER MT
    &END
    &SCF
      EPS_SCF 1.0E-6
      SCF_GUESS ATOMIC
      ADDED_MOS -1
      CHOLESKY OFF
      EPS_EIGVAL 1.0E-7
      MAX_SCF 50
    &END SCF
    &XC
      &XC_FUNCTIONAL PBE
      &END XC_FUNCTIONAL
	&END XC
  &END DFT
  &SUBSYS
    &CELL
      ABC 25 25 25
      PERIODIC NONE
    &END CELL
	&TOPOLOGY
      COORD_FILE_NAME 07_Li2.xyz
      COORD_FILE_FORMAT xyz
      &CENTER_COORDINATES
      &END
    &END TOPOLOGY
	&KIND H
	  BASIS_SET TZV2P-MOLOPT-PBE-GTH_+_aug-cc-pVQZ
	  POTENTIAL GTH-PBE
	&END KIND
	&KIND He
	  BASIS_SET TZV2P-MOLOPT-PBE-GTH_+_aug-cc-pVQZ
	  POTENTIAL GTH-PBE
	&END KIND
	&KIND Li
	  BASIS_SET TZV2P-MOLOPT-PBE-GTH_+_aug-cc-pVQZ
	  POTENTIAL GTH-PBE
	&END KIND
	&KIND Be
	  BASIS_SET TZV2P-MOLOPT-PBE-GTH_+_aug-cc-pVQZ
	  POTENTIAL GTH-PBE
	&END KIND
	&KIND B
	  BASIS_SET TZV2P-MOLOPT-PBE-GTH_+_aug-cc-pVQZ
	  POTENTIAL GTH-PBE
	&END KIND
	&KIND C
	  BASIS_SET TZV2P-MOLOPT-PBE-GTH_+_aug-cc-pVQZ
	  POTENTIAL GTH-PBE
	&END KIND
	&KIND N
	  BASIS_SET TZV2P-MOLOPT-PBE-GTH_+_aug-cc-pVQZ
	  POTENTIAL GTH-PBE
	&END KIND
	&KIND O
	  BASIS_SET TZV2P-MOLOPT-PBE-GTH_+_aug-cc-pVQZ
	  POTENTIAL GTH-PBE
	&END KIND
	&KIND F
	  BASIS_SET TZV2P-MOLOPT-PBE-GTH_+_aug-cc-pVQZ
	  POTENTIAL GTH-PBE
	&END KIND
	&KIND Ne
	  BASIS_SET TZV2P-MOLOPT-PBE-GTH_+_aug-cc-pVQZ
	  POTENTIAL GTH-PBE
	&END KIND
	&KIND Na
	  BASIS_SET TZV2P-MOLOPT-PBE-GTH_+_aug-cc-pVQZ
	  POTENTIAL GTH-PBE
	&END KIND
	&KIND Mg
	  BASIS_SET TZV2P-MOLOPT-PBE-GTH_+_aug-cc-pVQZ
	  POTENTIAL GTH-PBE
	&END KIND
	&KIND Al
	  BASIS_SET TZV2P-MOLOPT-PBE-GTH_+_aug-cc-pVQZ
	  POTENTIAL GTH-PBE
	&END KIND
	&KIND Si
	  BASIS_SET TZV2P-MOLOPT-PBE-GTH_+_aug-cc-pVQZ
	  POTENTIAL GTH-PBE
	&END KIND
	&KIND P
	  BASIS_SET TZV2P-MOLOPT-PBE-GTH_+_aug-cc-pVQZ
	  POTENTIAL GTH-PBE
	&END KIND
	&KIND S
	  BASIS_SET TZV2P-MOLOPT-PBE-GTH_+_aug-cc-pVQZ
	  POTENTIAL GTH-PBE
	&END KIND
	&KIND Cl
	  BASIS_SET TZV2P-MOLOPT-PBE-GTH_+_aug-cc-pVQZ
	  POTENTIAL GTH-PBE
	&END KIND
	&KIND Ar
	  BASIS_SET TZV2P-MOLOPT-PBE-GTH_+_aug-cc-pVQZ
	  POTENTIAL GTH-PBE
	&END KIND
	&KIND K
	  BASIS_SET TZV2P-MOLOPT-PBE-GTH_+_aug-cc-pVQZ
	  POTENTIAL GTH-PBE
	&END KIND
	&KIND Ca
	  BASIS_SET TZV2P-MOLOPT-PBE-GTH_+_aug-cc-pVQZ
	  POTENTIAL GTH-PBE
	&END KIND
	&KIND Sc
	  BASIS_SET TZV2P-MOLOPT-PBE-GTH_+_aug-cc-pVQZ
	  POTENTIAL GTH-PBE
	&END KIND
	&KIND Ti
	  BASIS_SET TZV2P-MOLOPT-PBE-GTH_+_aug-cc-pVQZ
	  POTENTIAL GTH-PBE
	&END KIND
	&KIND V
	  BASIS_SET TZV2P-MOLOPT-PBE-GTH_+_aug-cc-pVQZ
	  POTENTIAL GTH-PBE
	&END KIND
	&KIND Cr
	  BASIS_SET TZV2P-MOLOPT-PBE-GTH_+_aug-cc-pVQZ
	  POTENTIAL GTH-PBE
	&END KIND
	&KIND Mn
	  BASIS_SET TZV2P-MOLOPT-PBE-GTH_+_aug-cc-pVQZ
	  POTENTIAL GTH-PBE
	&END KIND
	&KIND Fe
	  BASIS_SET TZV2P-MOLOPT-PBE-GTH_+_aug-cc-pVQZ
	  POTENTIAL GTH-PBE
	&END KIND
	&KIND Co
	  BASIS_SET TZV2P-MOLOPT-PBE-GTH_+_aug-cc-pVQZ
	  POTENTIAL GTH-PBE
	&END KIND
	&KIND Ni
	  BASIS_SET TZV2P-MOLOPT-PBE-GTH_+_aug-cc-pVQZ
	  POTENTIAL GTH-PBE
	&END KIND
	&KIND Cu
	  BASIS_SET TZV2P-MOLOPT-PBE-GTH_+_aug-cc-pVQZ
	  POTENTIAL GTH-PBE
	&END KIND
	&KIND Zn
	  BASIS_SET TZV2P-MOLOPT-PBE-GTH_+_aug-cc-pVQZ
	  POTENTIAL GTH-PBE
	&END KIND
	&KIND Ga
	  BASIS_SET TZV2P-MOLOPT-PBE-GTH_+_aug-cc-pVQZ
	  POTENTIAL GTH-PBE
	&END KIND
	&KIND Ge
	  BASIS_SET TZV2P-MOLOPT-PBE-GTH_+_aug-cc-pVQZ
	  POTENTIAL GTH-PBE
	&END KIND
	&KIND As
	  BASIS_SET TZV2P-MOLOPT-PBE-GTH_+_aug-cc-pVQZ
	  POTENTIAL GTH-PBE
	&END KIND
	&KIND Se
	  BASIS_SET TZV2P-MOLOPT-PBE-GTH_+_aug-cc-pVQZ
	  POTENTIAL GTH-PBE
	&END KIND
	&KIND Br
	  BASIS_SET TZV2P-MOLOPT-PBE-GTH_+_aug-cc-pVQZ
	  POTENTIAL GTH-PBE
	&END KIND
	&KIND Kr
	  BASIS_SET TZV2P-MOLOPT-PBE-GTH_+_aug-cc-pVQZ
	  POTENTIAL GTH-PBE
	&END KIND
	&KIND Rb
	  BASIS_SET TZV2P-MOLOPT-PBE-GTH_+_aug-cc-pVQZ
	  POTENTIAL GTH-PBE
	&END KIND
	&KIND Sr
	  BASIS_SET TZV2P-MOLOPT-PBE-GTH_+_aug-cc-pVQZ
	  POTENTIAL GTH-PBE
	&END KIND
	&KIND Y
	  BASIS_SET TZV2P-MOLOPT-PBE-GTH_+_aug-cc-pVQZ
	  POTENTIAL GTH-PBE
	&END KIND
	&KIND Zr
	  BASIS_SET TZV2P-MOLOPT-PBE-GTH_+_aug-cc-pVQZ
	  POTENTIAL GTH-PBE
	&END KIND
	&KIND Nb
	  BASIS_SET TZV2P-MOLOPT-PBE-GTH_+_aug-cc-pVQZ
	  POTENTIAL GTH-PBE
	&END KIND
	&KIND Mo
	  BASIS_SET TZV2P-MOLOPT-PBE-GTH_+_aug-cc-pVQZ
	  POTENTIAL GTH-PBE
	&END KIND
	&KIND Tc
	  BASIS_SET TZV2P-MOLOPT-PBE-GTH_+_aug-cc-pVQZ
	  POTENTIAL GTH-PBE
	&END KIND
	&KIND Ru
	  BASIS_SET TZV2P-MOLOPT-PBE-GTH_+_aug-cc-pVQZ
	  POTENTIAL GTH-PBE
	&END KIND
	&KIND Rh
	  BASIS_SET TZV2P-MOLOPT-PBE-GTH_+_aug-cc-pVQZ
	  POTENTIAL GTH-PBE
	&END KIND
	&KIND Pd
	  BASIS_SET TZV2P-MOLOPT-PBE-GTH_+_aug-cc-pVQZ
	  POTENTIAL GTH-PBE
	&END KIND
	&KIND Ag
	  BASIS_SET TZV2P-MOLOPT-PBE-GTH_+_aug-cc-pVQZ
	  POTENTIAL GTH-PBE
	&END KIND
	&KIND Cd
	  BASIS_SET TZV2P-MOLOPT-PBE-GTH_+_aug-cc-pVQZ
	  POTENTIAL GTH-PBE
	&END KIND
	&KIND In
	  BASIS_SET TZV2P-MOLOPT-PBE-GTH_+_aug-cc-pVQZ
	  POTENTIAL GTH-PBE
	&END KIND
	&KIND Sn
	  BASIS_SET TZV2P-MOLOPT-PBE-GTH_+_aug-cc-pVQZ
	  POTENTIAL GTH-PBE
	&END KIND
	&KIND Sb
	  BASIS_SET TZV2P-MOLOPT-PBE-GTH_+_aug-cc-pVQZ
	  POTENTIAL GTH-PBE
	&END KIND
	&KIND Te
	  BASIS_SET TZV2P-MOLOPT-PBE-GTH_+_aug-cc-pVQZ
	  POTENTIAL GTH-PBE
	&END KIND
	&KIND I
	  BASIS_SET TZV2P-MOLOPT-PBE-GTH_+_aug-cc-pVQZ
	  POTENTIAL GTH-PBE
	&END KIND
	&KIND Xe
	  BASIS_SET TZV2P-MOLOPT-PBE-GTH_+_aug-cc-pVQZ
	  POTENTIAL GTH-PBE
	&END KIND
	&KIND Cs
	  BASIS_SET TZV2P-MOLOPT-PBE-GTH_+_aug-cc-pVQZ
	  POTENTIAL GTH-PBE
	&END KIND
	&KIND Ba
	  BASIS_SET TZV2P-MOLOPT-PBE-GTH_+_aug-cc-pVQZ
	  POTENTIAL GTH-PBE
	&END KIND
	&KIND Hf
	  BASIS_SET TZV2P-MOLOPT-PBE-GTH_+_aug-cc-pVQZ
	  POTENTIAL GTH-PBE
	&END KIND
	&KIND Ta
	  BASIS_SET TZV2P-MOLOPT-PBE-GTH_+_aug-cc-pVQZ
	  POTENTIAL GTH-PBE
	&END KIND
	&KIND W
	  BASIS_SET TZV2P-MOLOPT-PBE-GTH_+_aug-cc-pVQZ
	  POTENTIAL GTH-PBE
	&END KIND
	&KIND Re
	  BASIS_SET TZV2P-MOLOPT-PBE-GTH_+_aug-cc-pVQZ
	  POTENTIAL GTH-PBE
	&END KIND
	&KIND Os
	  BASIS_SET TZV2P-MOLOPT-PBE-GTH_+_aug-cc-pVQZ
	  POTENTIAL GTH-PBE
	&END KIND
	&KIND Ir
	  BASIS_SET TZV2P-MOLOPT-PBE-GTH_+_aug-cc-pVQZ
	  POTENTIAL GTH-PBE
	&END KIND
	&KIND Pt
	  BASIS_SET TZV2P-MOLOPT-PBE-GTH_+_aug-cc-pVQZ
	  POTENTIAL GTH-PBE
	&END KIND
	&KIND Au
	  BASIS_SET TZV2P-MOLOPT-PBE-GTH_+_aug-cc-pVQZ
	  POTENTIAL GTH-PBE
	&END KIND
	&KIND Hg
	  BASIS_SET TZV2P-MOLOPT-PBE-GTH_+_aug-cc-pVQZ
	  POTENTIAL GTH-PBE
	&END KIND
	&KIND Tl
	  BASIS_SET TZV2P-MOLOPT-PBE-GTH_+_aug-cc-pVQZ
	  POTENTIAL GTH-PBE
	&END KIND
	&KIND Pb
	  BASIS_SET TZV2P-MOLOPT-PBE-GTH_+_aug-cc-pVQZ
	  POTENTIAL GTH-PBE
	&END KIND
	&KIND Bi
	  BASIS_SET TZV2P-MOLOPT-PBE-GTH_+_aug-cc-pVQZ
	  POTENTIAL GTH-PBE
	&END KIND
	&KIND Po
	  BASIS_SET TZV2P-MOLOPT-PBE-GTH_+_aug-cc-pVQZ
	  POTENTIAL GTH-PBE
	&END KIND
	&KIND At
	  BASIS_SET TZV2P-MOLOPT-PBE-GTH_+_aug-cc-pVQZ
	  POTENTIAL GTH-PBE
	&END KIND
	&KIND Rn
	  BASIS_SET TZV2P-MOLOPT-PBE-GTH_+_aug-cc-pVQZ
	  POTENTIAL GTH-PBE
	&END KIND
  &END SUBSYS
&END FORCE_EVAL
&GLOBAL
  RUN_TYPE     ENERGY
  PRINT_LEVEL  MEDIUM
&END GLOBAL


